NAME: ClusterId_261 
COMMENT : (Gillet and Johnson) 
TYPE : CVRP 
DIMENSION: 4 
EDGE_WEIGHT_TYPE: EUC_2D 
CAPACITY: 500 
NODE_COORD_SECTION 
262 -60 -20 
134 -70 -19 
6 -69 -19 
80 -61 -26 
192 -63 -14 
DEMAND_SECTION 
262 220
134 -19
6 -19
80 -26
192 -14
DEPOT_SECTION 
262
 -1
EOF